# Crystalline silicon : computation of the optimal lattice parameter
# Convergence with respect to the number of k points.



#Optimization of the lattice parameters
optcell 1
ionmov  2
ntime  30
dilatmx 2
ecutsm  0.5

strprecon 0.1

ixc 11 

#Definition of the k-point grids
kptopt 1          # Option for the automatic generation of k points, taking
                  # into account the symmetry
nshiftk 4
shiftk  0.5 0.5 0.5  # These shifts will be the same for all grids
        0.5 0.0 0.0
        0.0 0.5 0.0
        0.0 0.0 0.5

ngkpt  2 2 2  
#ngkpt3  6 6 6    Not used ! 
#ngkpt4  8 8 8  

getwfk -1         # This is to speed up the calculation, by restarting
                  # from previous wavefunctions, transferred from the old 
                  # to the new k-points.



#Definition of the unit cell
acell 8.6808 5.5911 8.6808          # This is equivalent to   10.18 10.18 10.18
rprim  1 0 0   # FCC primitive vectors (to be scaled by acell)
       0 1 0   
       0 0 1

#Definition of the atom types
ntypat 2          # There is only one type of atom
znucl 22 8          # The keyword "znucl" refers to the atomic number of the 
                  # possible type(s) of atom. The pseudopotential(s) 
                  # mentioned in the "files" file must correspond
                  # to the type(s) of atom. Here, the only type is Silicon.
                         

#Definition of the atoms
natom 6           # There are two atoms
typat 2*1 4*2        # They both are of type 1, that is, Silicon.
xcart              # This keyword indicate that the location of the atoms
                  # will follow, one triplet of number for each atom
0.0000 0.0000 0.0000
4.3404 2.7956 4.3404
5.9898 0.0000 2.6910
2.6910 0.0000 5.9898
1.6494 2.7956 1.6494
7.0314 2.7956 7.0314

#Definition of the planewave basis set
ecut 60         # Maximal kinetic energy cut-off, in Hartree

#Definition of the SCF procedure
nstep 20          # Maximal number of SCF cycles
toldfe 1.0d-4     # Will stop when, twice in a row, the difference 
                  # between two consecutive evaluations of total energy 
                  # differ by less than toldfe (in Hartree) 
                  # This value is way too large for most realistic studies of materials
diemac 12.0       # Although this is not mandatory, it is worth to
                  # precondition the SCF cycle. The model dielectric
                  # function used as the standard preconditioner
                  # is described in the "dielng" input variable section.
                  # Here, we follow the prescription for bulk silicon.


## After modifying the following section, one might need to regenerate the pickle database with runtests.py -r
#%%<BEGIN TEST_INFO>
#%% [setup]
#%% executable = abinit
#%% [files]
#%% files_to_test = 
#%%   tbase3_4.out, tolnlines=  0, tolabs=  6.200e-07, tolrel=  1.100e-03, fld_options=-medium
#%% psp_files =  14si.pspnc
#%% [paral_info]
#%% max_nprocs = 4
#%% [extra_info]
#%% authors = Unknown
#%% keywords = 
#%% description = 
#%%    Crystalline silicon : computation of the optimal lattice parameter
#%%    Convergence with respect to the number of k points.
#%%<END TEST_INFO>
